c This is QMaxSAT 2017 based on 14.07
c This is Glucose 3.0
c This is MiniSat 2.2.0
c WARNING: for repeatability, setting FPU to use double precision
c card = mrwto, comp = 0, pmodel = 0, narr = 3, mct = 24, verb = 0
cr firstCPXsol 0 0 0
c top = 81479
c |  Number of variables:    13366                                            |
c |  Number of clauses:      2826545                                          |
c |  Weight of hard clauses: 81479                                            |
c |  Number of soft clauses: 1656                                             |
c |  Number of unit soft clauses: 1656                                        |
c |  Maximum Cardinality (by unit): 244434       (244434      )               |
c last restart ## conflicts  :  5 1378 
o 1881 | cpuTime 0.260281 s
c Sum of weights = 81478
c A number of soft clauses remained = 552
c MRWTO encoding for Pseudo-Boolean Constraints
c sizeMax=1881
c No.0 Divisor=13	generated by pow1
c No.1 Divisor=13	generated by pow1
c No.2 Divisor=13	generated by pow1
c p0= 13	p1= 13	p2= 13	
c number of digits = 4
c linkingVar[0].size = 13, linkingVar[1].size = 13, linkingVar[2].size = 12, linkingVar[3].size = 1, 
c Pseudo-Boolean Constraints: 12678 variables and 132322 clauses
c Sum of weights = 81478
c A number of soft clauses remained = 552
c MRWTO encoding for Pseudo-Boolean Constraints
c sizeMax=1881
c No.0 Divisor=13	generated by pow1
c No.1 Divisor=13	generated by pow1
c No.2 Divisor=13	generated by pow1
c p0= 13	p1= 13	p2= 13	
c number of digits = 4
c linkingVar[0].size = 13, linkingVar[1].size = 13, linkingVar[2].size = 12, linkingVar[3].size = 1, 
c Pseudo-Boolean Constraints: 12678 variables and 132322 clauses
c Sum of weights = 81478
c A number of soft clauses remained = 552
c MRWTO encoding for Pseudo-Boolean Constraints
c sizeMax=1881
c No.0 Divisor=13	generated by pow1
c No.1 Divisor=13	generated by pow1
c No.2 Divisor=13	generated by pow1
c p0= 13	p1= 13	p2= 13	
c number of digits = 4
c linkingVar[0].size = 13, linkingVar[1].size = 13, linkingVar[2].size = 12, linkingVar[3].size = 1, 
c Pseudo-Boolean Constraints: 12678 variables and 132322 clauses
c last restart ## conflicts  :  238 3516 
o 1869 | cpuTime 0.356761 s
c last restart ## conflicts  :  349 4731 
o 1357 | cpuTime 0.609622 s
c last restart ## conflicts  :  304 2655 
o 1327 | cpuTime 3.91219 s
c last restart ## conflicts  :  430 1337 
o 1311 | cpuTime 6.67761 s
c last restart ## conflicts  :  250 1657 
o 1295 | cpuTime 8.98163 s
c last restart ## conflicts  :  455 2904 
o 1106 | cpuTime 9.10823 s
c last restart ## conflicts  :  912 1655 
o 1098 | cpuTime 15.1186 s
c last restart ## conflicts  :  198 1442 
o 1025 | cpuTime 17.8757 s
c last restart ## conflicts  :  552 1371 
o 1006 | cpuTime 22.2874 s
c last restart ## conflicts  :  541 1517 
o 969 | cpuTime 23.2077 s
c last restart ## conflicts  :  92 1467 
o 955 | cpuTime 30.3077 s
c last restart ## conflicts  :  2096 1343 
o 951 | cpuTime 77.2809 s
c last restart ## conflicts  :  387 1281 
o 947 | cpuTime 96.446 s
c last restart ## conflicts  :  233 1534 
o 888 | cpuTime 98.9021 s
c last restart ## conflicts  :  0 2401 
o 886 | cpuTime 98.9424 s
c last restart ## conflicts  :  546 1511 
o 881 | cpuTime 105.306 s
c last restart ## conflicts  :  306 1241 
o 859 | cpuTime 140.673 s
c last restart ## conflicts  :  740 1147 
o 852 | cpuTime 294.51 s
c last restart ## conflicts  :  278 1263 
o 821 | cpuTime 321.404 s
c last restart ## conflicts  :  164 1224 
o 812 | cpuTime 430.714 s
c last restart ## conflicts  :  753 1190 
o 797 | cpuTime 1122.22 s
c last restart ## conflicts  :  2698 1195 
o 788 | cpuTime 1152.37 s
c last restart ## conflicts  :  123 1370 
o 784 | cpuTime 1694.34 s
c last restart ## conflicts  :  2885 1298 
o 767 | cpuTime 2388.56 s
s UNKNOWN
c Search is stopped by a limit (maybe time-limit)
cr positiVarArr: [ | 24@1(1->24) | 43@1(2->19) | 59@1(3->11) | 121@1(6->1) | 150@1(7->6) | 247@1(11->7) | 314@1(14->2) | 435@1(19->3) | 566@1(24->14) | 592@2(1->16) | 660@2(4->12) | 682@2(5->10) | 791@2(9->23) | 812@2(10->20) | 841@2(12->1) | 873@2(13->9) | 957@2(16->21) | 1045@2(20->13) | 1061@2(21->5) | 1108@2(23->4) | 1160@3(1->8) | 1338@3(8->18) | 1489@3(15->1) | 1551@3(17->15) | 1582@3(18->22) | 1673@3(22->17) | ]
cr the 1-th chain: [ 1->24->14->2->19->3->11->7->6->1 ] (#non-depot=8) {#cumul.=9}
cr the 2-th chain: [ 1->16->21->5->10->20->13->9->23->4->12->1 ] (#non-depot=10) {#cumul.=19}
cr the 3-th chain: [ 1->8->18->22->17->15->1 ] (#non-depot=5) {#cumul.=24}
c Latest Answer = 0 by 25 loops
c restarts              : 44145
c conflicts             : 14499238       (4038 /sec)
c decisions             : 54071744       (0.00 % random) (15057 /sec)
c propagations          : 20310557497    (5655922 /sec)
c conflict literals     : 3523172798     (46.08 % deleted)
c Memory used           : 950.00 MB
c CPU time              : 3591.02 s
